#param : RAM:          r         x     bsh     a    fi  smax:=
#  n  de  para     [pu]      [pu]     [pu]     [graus]  [VA]
#   1   1     2  0.01938   0.05917   0.0528 0.0    0.0   170
#   2   1     5  0.05403   0.22304   0.0492 0.0    0.0    90
#   3   2     3  0.04699   0.19797   0.0438 0.0    0.0    90
#   4   2     4  0.05811   0.17632   0.0340 0.0    0.0    70
#   5   2     5  0.05695   0.17388   0.0346 0.0    0.0    50
#   6   3     4  0.06701   0.17103   0.0128 0.0    0.0    30
#   7   4     5  0.01335   0.04211   0.0    0.0    0.0    70
#   8   4     7  0.0       0.20912   0.0    0.978  0.0    50
#   9   4     9  0.0       0.55618   0.0    0.969  0.0    30
#  10   5     6  0.0       0.25202   0.0    0.932  0.0    70
#  11   6    11  0.09498   0.19890   0.0    0.0    0.0    20
#  12   6    12  0.12291   0.25581   0.0    0.0    0.0    20
#  13   6    13  0.06615   0.13027   0.0    0.0    0.0    30
#  14   7     8  0.0       0.17615   0.0    0.0    0.0    30
#  15   7     9  0.0       0.11001   0.0    0.0    0.0    40
#  16   9    10  0.03181   0.08450   0.0    0.0    0.0    20
#  17   9    14  0.12711   0.27038   0.0    0.0    0.0    20
#  18  10    11  0.08205   0.19207   0.0    0.0    0.0    20
#  19  12    13  0.22092   0.19988   0.0    0.0    0.0    20
#  20  13    14  0.17093   0.34802   0.0    0.0    0.0    20;
  
  
  param : RAM:          r         x     bsh     a    fi  smax:=
#     de  para     [pu]      [pu]     [pu]     [graus]  [VA]
   1     2  0.01938   0.05917   0.0528 0.0    0.0   170
   1     5  0.05403   0.22304   0.0492 0.0    0.0    90
   2     3  0.04699   0.19797   0.0438 0.0    0.0    90
   2     4  0.05811   0.17632   0.0340 0.0    0.0    70
   2     5  0.05695   0.17388   0.0346 0.0    0.0    50
   3     4  0.06701   0.17103   0.0128 0.0    0.0    30
   4     5  0.01335   0.04211   0.0    0.0    0.0    70
   4     7  0.0       0.20912   0.0    0.978  0.0    50
   4     9  0.0       0.55618   0.0    0.969  0.0    30
   5     6  0.0       0.25202   0.0    0.932  0.0    70
   6    11  0.09498   0.19890   0.0    0.0    0.0    20
   6    12  0.12291   0.25581   0.0    0.0    0.0    20
   6    13  0.06615   0.13027   0.0    0.0    0.0    30
   7     8  0.0       0.17615   0.0    0.0    0.0    30
   7     9  0.0       0.11001   0.0    0.0    0.0    40
   9    10  0.03181   0.08450   0.0    0.0    0.0    20
   9    14  0.12711   0.27038   0.0    0.0    0.0    20
  10    11  0.08205   0.19207   0.0    0.0    0.0    20
  12    13  0.22092   0.19988   0.0    0.0    0.0    20
  13    14  0.17093   0.34802   0.0    0.0    0.0    20;

param : BAR: tipo        V0    th0       Pd       Qd      Pg0      Qg0      gshb    bshb   :=
#         n  tipo      [pu] [graus]     [MW]   [MVAr]     [MW]   [MVAr]      [pu]    [pu]
          1     3     1.060    0.0      0.0      0.0    232.4    -16.9       0.0     0.0  
          2     2     1.045  -4.98     21.7     12.7     40.0     42.4       0.0     0.0  
          3     2     1.010 -12.72     94.2     19.0      0.0     23.4       0.0     0.0  
          4     0     1.019 -10.33     47.8     -3.9      0.0      0.0       0.0     0.0  
          5     0     1.020  -8.78      7.6      1.6      0.0      0.0       0.0     0.0  
          6     2     1.070 -14.22     11.2      7.5      0.0     12.2       0.0     0.0  
          7     0     1.062 -13.37      0.0      0.0      0.0      0.0       0.0     0.0  
          8     2     1.090 -13.36      0.0      0.0      0.0     17.4       0.0     0.0  
          9     0     1.056 -14.94     29.5     16.6      0.0      0.0       0.0     0.19 
         10     0     1.051 -15.10      9.0      5.8      0.0      0.0       0.0     0.0  
         11     0     1.057 -14.79      3.5      1.8      0.0      0.0       0.0     0.0  
         12     0     1.055 -15.07      6.1      1.6      0.0      0.0       0.0     0.0  
         13     0     1.050 -15.16     13.5      5.8      0.0      0.0       0.0     0.0  
         14     0     1.036 -16.04     14.9      5.0      0.0      0.0       0.0     0.0  ;

param Sbase := 100; #MVA
param Vnom := 1.00;
param Vmax := 1.05;
param Vmin := 0.95;